* Source:     Pyomo MPS Writer
* Format:     Free MPS
*
NAME unknown
OBJSENSE
 MIN
ROWS
 N  x111
 E  c_e_x112_
 E  c_e_x113_
 E  c_e_x114_
 E  c_e_x115_
 E  c_e_x116_
 E  c_e_x117_
 E  c_e_x118_
 E  c_e_x119_
 E  c_e_x120_
 E  c_e_x121_
 L  c_u_x122_
 L  c_u_x123_
 L  c_u_x124_
 L  c_u_x125_
 L  c_u_x126_
 L  c_u_x127_
 L  c_u_x128_
 L  c_u_x129_
 L  c_u_x130_
 L  c_u_x131_
 L  c_u_x132_
 L  c_u_x133_
 L  c_u_x134_
 L  c_u_x135_
 L  c_u_x136_
 L  c_u_x137_
 L  c_u_x138_
 L  c_u_x139_
 L  c_u_x140_
 L  c_u_x141_
 L  c_u_x142_
 L  c_u_x143_
 L  c_u_x144_
 L  c_u_x145_
 L  c_u_x146_
 L  c_u_x147_
 L  c_u_x148_
 L  c_u_x149_
 L  c_u_x150_
 L  c_u_x151_
 L  c_u_x152_
 E  c_e_x153_
COLUMNS
     x1 c_e_x112_ 1
     x1 c_u_x122_ 6
     x1 c_u_x132_ 11
     x2 c_e_x112_ 1
     x2 c_u_x123_ 6
     x2 c_u_x133_ 11
     x3 c_e_x112_ 1
     x3 c_u_x124_ 6
     x3 c_u_x134_ 11
     x4 c_e_x112_ 1
     x4 c_u_x125_ 6
     x4 c_u_x135_ 11
     x5 c_e_x112_ 1
     x5 c_u_x126_ 6
     x5 c_u_x136_ 11
     x6 c_e_x112_ 1
     x6 c_u_x127_ 6
     x6 c_u_x137_ 11
     x7 c_e_x112_ 1
     x7 c_u_x128_ 6
     x7 c_u_x138_ 11
     x8 c_e_x112_ 1
     x8 c_u_x129_ 6
     x8 c_u_x139_ 11
     x9 c_e_x112_ 1
     x9 c_u_x130_ 6
     x9 c_u_x140_ 11
     x10 c_e_x112_ 1
     x10 c_u_x131_ 6
     x10 c_u_x141_ 11
     x11 c_e_x113_ 1
     x11 c_u_x122_ 4
     x11 c_u_x132_ 4
     x12 c_e_x113_ 1
     x12 c_u_x123_ 4
     x12 c_u_x133_ 4
     x13 c_e_x113_ 1
     x13 c_u_x124_ 4
     x13 c_u_x134_ 4
     x14 c_e_x113_ 1
     x14 c_u_x125_ 4
     x14 c_u_x135_ 4
     x15 c_e_x113_ 1
     x15 c_u_x126_ 4
     x15 c_u_x136_ 4
     x16 c_e_x113_ 1
     x16 c_u_x127_ 4
     x16 c_u_x137_ 4
     x17 c_e_x113_ 1
     x17 c_u_x128_ 4
     x17 c_u_x138_ 4
     x18 c_e_x113_ 1
     x18 c_u_x129_ 4
     x18 c_u_x139_ 4
     x19 c_e_x113_ 1
     x19 c_u_x130_ 4
     x19 c_u_x140_ 4
     x20 c_e_x113_ 1
     x20 c_u_x131_ 4
     x20 c_u_x141_ 4
     x21 c_e_x114_ 1
     x21 c_u_x122_ 7
     x21 c_u_x132_ 8
     x22 c_e_x114_ 1
     x22 c_u_x123_ 7
     x22 c_u_x133_ 8
     x23 c_e_x114_ 1
     x23 c_u_x124_ 7
     x23 c_u_x134_ 8
     x24 c_e_x114_ 1
     x24 c_u_x125_ 7
     x24 c_u_x135_ 8
     x25 c_e_x114_ 1
     x25 c_u_x126_ 7
     x25 c_u_x136_ 8
     x26 c_e_x114_ 1
     x26 c_u_x127_ 7
     x26 c_u_x137_ 8
     x27 c_e_x114_ 1
     x27 c_u_x128_ 7
     x27 c_u_x138_ 8
     x28 c_e_x114_ 1
     x28 c_u_x129_ 7
     x28 c_u_x139_ 8
     x29 c_e_x114_ 1
     x29 c_u_x130_ 7
     x29 c_u_x140_ 8
     x30 c_e_x114_ 1
     x30 c_u_x131_ 7
     x30 c_u_x141_ 8
     x31 c_e_x115_ 1
     x31 c_u_x122_ 12
     x31 c_u_x132_ 3
     x32 c_e_x115_ 1
     x32 c_u_x123_ 12
     x32 c_u_x133_ 3
     x33 c_e_x115_ 1
     x33 c_u_x124_ 12
     x33 c_u_x134_ 3
     x34 c_e_x115_ 1
     x34 c_u_x125_ 12
     x34 c_u_x135_ 3
     x35 c_e_x115_ 1
     x35 c_u_x126_ 12
     x35 c_u_x136_ 3
     x36 c_e_x115_ 1
     x36 c_u_x127_ 12
     x36 c_u_x137_ 3
     x37 c_e_x115_ 1
     x37 c_u_x128_ 12
     x37 c_u_x138_ 3
     x38 c_e_x115_ 1
     x38 c_u_x129_ 12
     x38 c_u_x139_ 3
     x39 c_e_x115_ 1
     x39 c_u_x130_ 12
     x39 c_u_x140_ 3
     x40 c_e_x115_ 1
     x40 c_u_x131_ 12
     x40 c_u_x141_ 3
     x41 c_e_x116_ 1
     x41 c_u_x132_ 6
     x42 c_e_x116_ 1
     x42 c_u_x133_ 6
     x43 c_e_x116_ 1
     x43 c_u_x134_ 6
     x44 c_e_x116_ 1
     x44 c_u_x135_ 6
     x45 c_e_x116_ 1
     x45 c_u_x136_ 6
     x46 c_e_x116_ 1
     x46 c_u_x137_ 6
     x47 c_e_x116_ 1
     x47 c_u_x138_ 6
     x48 c_e_x116_ 1
     x48 c_u_x139_ 6
     x49 c_e_x116_ 1
     x49 c_u_x140_ 6
     x50 c_e_x116_ 1
     x50 c_u_x141_ 6
     x51 c_e_x117_ 1
     x51 c_u_x122_ 4
     x51 c_u_x132_ 4
     x51 c_u_x142_ 1
     x52 c_e_x117_ 1
     x52 c_u_x123_ 4
     x52 c_u_x133_ 4
     x52 c_u_x142_ 2
     x53 c_e_x117_ 1
     x53 c_u_x124_ 4
     x53 c_u_x134_ 4
     x53 c_u_x142_ 3
     x54 c_e_x117_ 1
     x54 c_u_x125_ 4
     x54 c_u_x135_ 4
     x54 c_u_x142_ 4
     x55 c_e_x117_ 1
     x55 c_u_x126_ 4
     x55 c_u_x136_ 4
     x55 c_u_x142_ 5
     x56 c_e_x117_ 1
     x56 c_u_x127_ 4
     x56 c_u_x137_ 4
     x56 c_u_x142_ 6
     x57 c_e_x117_ 1
     x57 c_u_x128_ 4
     x57 c_u_x138_ 4
     x57 c_u_x142_ 7
     x58 c_e_x117_ 1
     x58 c_u_x129_ 4
     x58 c_u_x139_ 4
     x58 c_u_x142_ 8
     x59 c_e_x117_ 1
     x59 c_u_x130_ 4
     x59 c_u_x140_ 4
     x59 c_u_x142_ 9
     x60 c_e_x117_ 1
     x60 c_u_x131_ 4
     x60 c_u_x141_ 4
     x60 c_u_x142_ 10
     x61 c_e_x118_ 1
     x61 c_u_x122_ 8
     x61 c_u_x132_ 8
     x61 c_u_x142_ -1
     x62 c_e_x118_ 1
     x62 c_u_x123_ 8
     x62 c_u_x133_ 8
     x62 c_u_x142_ -2
     x63 c_e_x118_ 1
     x63 c_u_x124_ 8
     x63 c_u_x134_ 8
     x63 c_u_x142_ -3
     x64 c_e_x118_ 1
     x64 c_u_x125_ 8
     x64 c_u_x135_ 8
     x64 c_u_x142_ -4
     x65 c_e_x118_ 1
     x65 c_u_x126_ 8
     x65 c_u_x136_ 8
     x65 c_u_x142_ -5
     x66 c_e_x118_ 1
     x66 c_u_x127_ 8
     x66 c_u_x137_ 8
     x66 c_u_x142_ -6
     x67 c_e_x118_ 1
     x67 c_u_x128_ 8
     x67 c_u_x138_ 8
     x67 c_u_x142_ -7
     x68 c_e_x118_ 1
     x68 c_u_x129_ 8
     x68 c_u_x139_ 8
     x68 c_u_x142_ -8
     x69 c_e_x118_ 1
     x69 c_u_x130_ 8
     x69 c_u_x140_ 8
     x69 c_u_x142_ -9
     x70 c_e_x118_ 1
     x70 c_u_x131_ 8
     x70 c_u_x141_ 8
     x70 c_u_x142_ -10
     x71 c_e_x119_ 1
     x71 c_u_x122_ 9
     x71 c_u_x132_ 9
     x71 c_u_x143_ 1
     x72 c_e_x119_ 1
     x72 c_u_x123_ 9
     x72 c_u_x133_ 9
     x72 c_u_x144_ 1
     x73 c_e_x119_ 1
     x73 c_u_x124_ 9
     x73 c_u_x134_ 9
     x73 c_u_x145_ 1
     x74 c_e_x119_ 1
     x74 c_u_x125_ 9
     x74 c_u_x135_ 9
     x74 c_u_x146_ 1
     x75 c_e_x119_ 1
     x75 c_u_x126_ 9
     x75 c_u_x136_ 9
     x75 c_u_x147_ 1
     x76 c_e_x119_ 1
     x76 c_u_x127_ 9
     x76 c_u_x137_ 9
     x76 c_u_x148_ 1
     x77 c_e_x119_ 1
     x77 c_u_x128_ 9
     x77 c_u_x138_ 9
     x77 c_u_x149_ 1
     x78 c_e_x119_ 1
     x78 c_u_x129_ 9
     x78 c_u_x139_ 9
     x78 c_u_x150_ 1
     x79 c_e_x119_ 1
     x79 c_u_x130_ 9
     x79 c_u_x140_ 9
     x79 c_u_x151_ 1
     x80 c_e_x119_ 1
     x80 c_u_x131_ 9
     x80 c_u_x141_ 9
     x80 c_u_x152_ 1
     x81 c_e_x120_ 1
     x81 c_u_x122_ 4
     x81 c_u_x132_ 4
     x81 c_u_x143_ 1
     x82 c_e_x120_ 1
     x82 c_u_x123_ 4
     x82 c_u_x133_ 4
     x82 c_u_x144_ 1
     x83 c_e_x120_ 1
     x83 c_u_x124_ 4
     x83 c_u_x134_ 4
     x83 c_u_x145_ 1
     x84 c_e_x120_ 1
     x84 c_u_x125_ 4
     x84 c_u_x135_ 4
     x84 c_u_x146_ 1
     x85 c_e_x120_ 1
     x85 c_u_x126_ 4
     x85 c_u_x136_ 4
     x85 c_u_x147_ 1
     x86 c_e_x120_ 1
     x86 c_u_x127_ 4
     x86 c_u_x137_ 4
     x86 c_u_x148_ 1
     x87 c_e_x120_ 1
     x87 c_u_x128_ 4
     x87 c_u_x138_ 4
     x87 c_u_x149_ 1
     x88 c_e_x120_ 1
     x88 c_u_x129_ 4
     x88 c_u_x139_ 4
     x88 c_u_x150_ 1
     x89 c_e_x120_ 1
     x89 c_u_x130_ 4
     x89 c_u_x140_ 4
     x89 c_u_x151_ 1
     x90 c_e_x120_ 1
     x90 c_u_x131_ 4
     x90 c_u_x141_ 4
     x90 c_u_x152_ 1
     x91 c_e_x121_ 1
     x91 c_u_x122_ 6
     x91 c_u_x132_ 6
     x92 c_e_x121_ 1
     x92 c_u_x123_ 6
     x92 c_u_x133_ 6
     x93 c_e_x121_ 1
     x93 c_u_x124_ 6
     x93 c_u_x134_ 6
     x94 c_e_x121_ 1
     x94 c_u_x125_ 6
     x94 c_u_x135_ 6
     x95 c_e_x121_ 1
     x95 c_u_x126_ 6
     x95 c_u_x136_ 6
     x96 c_e_x121_ 1
     x96 c_u_x127_ 6
     x96 c_u_x137_ 6
     x97 c_e_x121_ 1
     x97 c_u_x128_ 6
     x97 c_u_x138_ 6
     x98 c_e_x121_ 1
     x98 c_u_x129_ 6
     x98 c_u_x139_ 6
     x99 c_e_x121_ 1
     x99 c_u_x130_ 6
     x99 c_u_x140_ 6
     x100 c_e_x121_ 1
     x100 c_u_x131_ 6
     x100 c_u_x141_ 6
     x101 x111 1
     x101 c_u_x122_ -20
     x101 c_u_x132_ -20
     x102 x111 1
     x102 c_u_x123_ -20
     x102 c_u_x133_ -20
     x103 x111 1
     x103 c_u_x124_ -20
     x103 c_u_x134_ -20
     x104 x111 1
     x104 c_u_x125_ -20
     x104 c_u_x135_ -20
     x105 x111 1
     x105 c_u_x126_ -20
     x105 c_u_x136_ -20
     x106 x111 1
     x106 c_u_x127_ -20
     x106 c_u_x137_ -20
     x107 x111 1
     x107 c_u_x128_ -20
     x107 c_u_x138_ -20
     x108 x111 1
     x108 c_u_x129_ -20
     x108 c_u_x139_ -20
     x109 x111 1
     x109 c_u_x130_ -20
     x109 c_u_x140_ -20
     x110 x111 1
     x110 c_u_x131_ -20
     x110 c_u_x141_ -20
RHS
     RHS c_e_x112_ 1
     RHS c_e_x113_ 1
     RHS c_e_x114_ 1
     RHS c_e_x115_ 1
     RHS c_e_x116_ 1
     RHS c_e_x117_ 1
     RHS c_e_x118_ 1
     RHS c_e_x119_ 1
     RHS c_e_x120_ 1
     RHS c_e_x121_ 1
     RHS c_u_x122_ 0
     RHS c_u_x123_ 0
     RHS c_u_x124_ 0
     RHS c_u_x125_ 0
     RHS c_u_x126_ 0
     RHS c_u_x127_ 0
     RHS c_u_x128_ 0
     RHS c_u_x129_ 0
     RHS c_u_x130_ 0
     RHS c_u_x131_ 0
     RHS c_u_x132_ 0
     RHS c_u_x133_ 0
     RHS c_u_x134_ 0
     RHS c_u_x135_ 0
     RHS c_u_x136_ 0
     RHS c_u_x137_ 0
     RHS c_u_x138_ 0
     RHS c_u_x139_ 0
     RHS c_u_x140_ 0
     RHS c_u_x141_ 0
     RHS c_u_x142_ 0
     RHS c_u_x143_ 1
     RHS c_u_x144_ 1
     RHS c_u_x145_ 1
     RHS c_u_x146_ 1
     RHS c_u_x147_ 1
     RHS c_u_x148_ 1
     RHS c_u_x149_ 1
     RHS c_u_x150_ 1
     RHS c_u_x151_ 1
     RHS c_u_x152_ 1
     RHS c_e_x153_ 1
BOUNDS
 BV BOUND x1
 BV BOUND x2
 BV BOUND x3
 BV BOUND x4
 BV BOUND x5
 BV BOUND x6
 BV BOUND x7
 BV BOUND x8
 BV BOUND x9
 BV BOUND x10
 BV BOUND x11
 BV BOUND x12
 BV BOUND x13
 BV BOUND x14
 BV BOUND x15
 BV BOUND x16
 BV BOUND x17
 BV BOUND x18
 BV BOUND x19
 BV BOUND x20
 BV BOUND x21
 BV BOUND x22
 BV BOUND x23
 BV BOUND x24
 BV BOUND x25
 BV BOUND x26
 BV BOUND x27
 BV BOUND x28
 BV BOUND x29
 BV BOUND x30
 BV BOUND x31
 BV BOUND x32
 BV BOUND x33
 BV BOUND x34
 BV BOUND x35
 BV BOUND x36
 BV BOUND x37
 BV BOUND x38
 BV BOUND x39
 BV BOUND x40
 BV BOUND x41
 BV BOUND x42
 BV BOUND x43
 BV BOUND x44
 BV BOUND x45
 BV BOUND x46
 BV BOUND x47
 BV BOUND x48
 BV BOUND x49
 BV BOUND x50
 BV BOUND x51
 BV BOUND x52
 BV BOUND x53
 BV BOUND x54
 BV BOUND x55
 BV BOUND x56
 BV BOUND x57
 BV BOUND x58
 BV BOUND x59
 BV BOUND x60
 BV BOUND x61
 BV BOUND x62
 BV BOUND x63
 BV BOUND x64
 BV BOUND x65
 BV BOUND x66
 BV BOUND x67
 BV BOUND x68
 BV BOUND x69
 BV BOUND x70
 BV BOUND x71
 BV BOUND x72
 BV BOUND x73
 BV BOUND x74
 BV BOUND x75
 BV BOUND x76
 BV BOUND x77
 BV BOUND x78
 BV BOUND x79
 BV BOUND x80
 BV BOUND x81
 BV BOUND x82
 BV BOUND x83
 BV BOUND x84
 BV BOUND x85
 BV BOUND x86
 BV BOUND x87
 BV BOUND x88
 BV BOUND x89
 BV BOUND x90
 BV BOUND x91
 BV BOUND x92
 BV BOUND x93
 BV BOUND x94
 BV BOUND x95
 BV BOUND x96
 BV BOUND x97
 BV BOUND x98
 BV BOUND x99
 BV BOUND x100
 BV BOUND x101
 BV BOUND x102
 BV BOUND x103
 BV BOUND x104
 BV BOUND x105
 BV BOUND x106
 BV BOUND x107
 BV BOUND x108
 BV BOUND x109
 BV BOUND x110
QCMATRIX    c_e_x153_
     x1 x11 0.5
     x11 x1 0.5
     x2 x12 0.5
     x12 x2 0.5
     x3 x13 0.5
     x13 x3 0.5
     x4 x14 0.5
     x14 x4 0.5
     x5 x15 0.5
     x15 x5 0.5
     x6 x16 0.5
     x16 x6 0.5
     x7 x17 0.5
     x17 x7 0.5
     x8 x18 0.5
     x18 x8 0.5
     x9 x19 0.5
     x19 x9 0.5
     x10 x20 0.5
     x20 x10 0.5
ENDATA
